c User generated cnf file
p cnf 15 22
10 -14 6 0 
4 -3 14 0 
-2 10 5 0 
9 6 -2 0 
12 13 -14 0 
8 1 -13 0 
10 9 -8 0 
13 8 -14 0 
2 12 -8 0 
2 -6 6 0 
4 10 -13 0 
3 -15 6 0 
5 14 -5 0 
11 7 -12 0 
1 14 -9 0 
3 -14 11 0 
1 -11 1 0 
3 15 -9 0 
-1 2 2 0 
-5 9 15 0 
-1 11 3 0 
12 -12 15 0 
